# Objective value = 59
WA1n 0
WA1p 0
WA2n 1
WA2p 0
WB1n 0
WB1p 0
WB2n 0
WB2p 1
WC1n 1
WC1p 0
WD1n 0
WD1p 1
WE1n 2
WE1p 0
WE2n 1
WE2p 0
WF1n 0
WF1p 2
WF2n 0
WF2p 1
WG1n 6
WG1p 0
WH1n 0
WH1p 8
WH2n 0
WH2p 1
WI1n 0
WI1p 14
WI2n 0
WI2p 1
WT1n 0
WT1p 13
5 7
a 0
b 0
c 0
d 1
e 0
f 1
g 0
h 0
i 1
j 1
k 0
l 1
m 1
n 1
o 1
p 1
